c instance by G2
c solution = 0101000100100010101
c Known solution cost is 828 
p cnf 19 30
w 10 73 40 10 58 42 50 77 43 37 6 46 80 30 36 35 45 65 45
3 6 -13 0
-12 -2 6 0
-15 18 19 0
-14 -4 13 0
-9 7 5 0
-5 1 10 0
-15 5 -18 0
7 -12 -11 0
17 -2 -8 0
17 4 -11 0
-16 -7 14 0
-7 -18 -17 0
14 -3 13 0
18 19 8 0
15 13 -17 0
-6 5 16 0
1 4 7 0
-18 10 6 0
-10 -15 13 0
12 7 11 0
-9 1 -4 0
-1 12 -11 0
9 8 11 0
12 17 -19 0
8 3 13 0
3 -15 2 0
-16 -8 1 0
-17 -7 -19 0
-8 1 4 0
-14 -15 12 0
